DIMENSION :5
NODE_COORD_SECTION
1 -71.08400683778461 -39.15052230808249
2 75.74528772921519 42.53538896213135
3 -73.5540637425264 2.063276731982697
4 -18.317209502620543 -58.17148639784353
5 -84.50995829089317 26.26125956298482
EOF
